\ENCODING=ISO-8859-1
\Problem name: ilog.cplex

Maximize
 obj: 539 x(0)#0 + 564 x(1)#1 + 604 x(2)#2 + 864 x(3)#3 + 1149 x(4)#4
      + 727 x(5)#5 + 481 x(6)#6 + 772 x(7)#7 + 901 x(8)#8 + 706 x(9)#9
      + 780 x(10)#10 + 806 x(11)#11 + 810 x(12)#12 + 746 x(13)#13
      + 870 x(14)#14 + 1167 x(15)#15 + 995 x(16)#16 + 1075 x(17)#17
      + 576 x(18)#18 + 661 x(19)#19 + 518 x(20)#20 + 742 x(21)#21
      + 1162 x(22)#22 + 814 x(23)#23 + 603 x(24)#24 + 439 x(25)#25
      + 1026 x(26)#26 + 641 x(27)#27 + 737 x(28)#28 + 1003 x(29)#29
      + 612 x(30)#30 + 992 x(31)#31 + 576 x(32)#32 + 778 x(33)#33
      + 715 x(34)#34 + 493 x(35)#35 + 533 x(36)#36 + 857 x(37)#37
      + 875 x(38)#38 + 643 x(39)#39 + 667 x(40)#40 + 705 x(41)#41
      + 667 x(42)#42 + 663 x(43)#43 + 700 x(44)#44 + 1055 x(45)#45
      + 938 x(46)#46 + 561 x(47)#47 + 633 x(48)#48 + 608 x(49)#49
      + 731 x(50)#50 + 723 x(51)#51 + 933 x(52)#52 + 1152 x(53)#53
      + 801 x(54)#54 + 676 x(55)#55 + 667 x(56)#56 + 789 x(57)#57
      + 995 x(58)#58 + 1008 x(59)#59 + 811 x(60)#60 + 723 x(61)#61
      + 773 x(62)#62 + 821 x(63)#63 + 836 x(64)#64 + 654 x(65)#65
      + 856 x(66)#66 + 912 x(67)#67 + 678 x(68)#68 + 1132 x(69)#69
      + 540 x(70)#70 + 431 x(71)#71 + 442 x(72)#72 + 513 x(73)#73
      + 763 x(74)#74 + 804 x(75)#75 + 848 x(76)#76 + 586 x(77)#77
      + 636 x(78)#78 + 466 x(79)#79 + 854 x(80)#80 + 818 x(81)#81
      + 1226 x(82)#82 + 1064 x(83)#83 + 732 x(84)#84 + 645 x(85)#85
      + 1075 x(86)#86 + 1050 x(87)#87 + 726 x(88)#88 + 974 x(89)#89
      + 659 x(90)#90 + 677 x(91)#91 + 769 x(92)#92 + 559 x(93)#93
      + 856 x(94)#94 + 626 x(95)#95 + 951 x(96)#96 + 294 x(97)#97
      + 738 x(98)#98 + 678 x(99)#99
Subject To
 c1: 836 x(0)#0 + 84 x(1)#1 + 299 x(2)#2 + 121 x(3)#3 + 335 x(4)#4 + 351 x(5)#5
     + 749 x(6)#6 + 596 x(7)#7 + 855 x(8)#8 + 981 x(9)#9 + 527 x(10)#10
     + 799 x(11)#11 + 513 x(12)#12 + 619 x(13)#13 + 801 x(14)#14 + 906 x(15)#15
     + 509 x(16)#16 + 920 x(17)#17 + 573 x(18)#18 + 735 x(19)#19 + 128 x(20)#20
     + 253 x(21)#21 + 828 x(22)#22 + 654 x(23)#23 + 112 x(24)#24 + 115 x(25)#25
     + 591 x(26)#26 + 206 x(27)#27 + 931 x(28)#28 + 153 x(29)#29 + 706 x(30)#30
     + 522 x(31)#31 + 63 x(32)#32 + 676 x(33)#33 + 799 x(34)#34 + 737 x(35)#35
     + 432 x(36)#36 + 669 x(37)#37 + 161 x(38)#38 + 28 x(39)#39 + 578 x(40)#40
     + 449 x(41)#41 + 43 x(42)#42 + 189 x(43)#43 + 492 x(44)#44 + 508 x(45)#45
     + 459 x(46)#46 + 900 x(47)#47 + 641 x(48)#48 + 58 x(49)#49 + 50 x(50)#50
     + 281 x(51)#51 + 246 x(52)#52 + 691 x(53)#53 + 537 x(54)#54 + 905 x(55)#55
     + 933 x(56)#56 + 940 x(57)#57 + 362 x(58)#58 + 553 x(59)#59 + 659 x(60)#60
     + 269 x(61)#61 + 100 x(62)#62 + 27 x(63)#63 + 588 x(64)#64 + 574 x(65)#65
     + 76 x(66)#66 + 699 x(67)#67 + 633 x(68)#68 + 856 x(69)#69 + 99 x(70)#70
     + 872 x(71)#71 + 7 x(72)#72 + 253 x(73)#73 + 276 x(74)#74 + 339 x(75)#75
     + 607 x(76)#76 + 383 x(77)#77 + 962 x(78)#78 + 121 x(79)#79 + 812 x(80)#80
     + 122 x(81)#81 + 980 x(82)#82 + 625 x(83)#83 + 161 x(84)#84 + 673 x(85)#85
     + 320 x(86)#86 + 508 x(87)#87 + 846 x(88)#88 + 521 x(89)#89 + 592 x(90)#90
     + 119 x(91)#91 + 967 x(92)#92 + 839 x(93)#93 + 206 x(94)#94 + 850 x(95)#95
     + 163 x(96)#96 + 370 x(97)#97 + 49 x(98)#98 + 214 x(99)#99 <= 36769
 c2: 268 x(0)#0 + 367 x(1)#1 + 597 x(2)#2 + 833 x(3)#3 + 995 x(4)#4 + 89 x(5)#5
     + 12 x(6)#6 + 512 x(7)#7 + 729 x(8)#8 + 558 x(9)#9 + 22 x(10)#10
     + 617 x(11)#11 + 398 x(12)#12 + 719 x(13)#13 + 961 x(14)#14 + 662 x(15)#15
     + 170 x(16)#16 + 711 x(17)#17 + 234 x(18)#18 + 664 x(19)#19 + 788 x(20)#20
     + 649 x(21)#21 + 895 x(22)#22 + 705 x(23)#23 + 614 x(24)#24 + 615 x(25)#25
     + 538 x(26)#26 + 384 x(27)#27 + 557 x(28)#28 + 919 x(29)#29 + 693 x(30)#30
     + 794 x(31)#31 + 297 x(32)#32 + 540 x(33)#33 + 733 x(34)#34 + 69 x(35)#35
     + 257 x(36)#36 + 916 x(37)#37 + 697 x(38)#38 + 45 x(39)#39 + 203 x(40)#40
     + 527 x(41)#41 + 719 x(42)#42 + 890 x(43)#43 + 326 x(44)#44 + 954 x(45)#45
     + 651 x(46)#46 + 55 x(47)#47 + 200 x(48)#48 + 735 x(49)#49 + 311 x(50)#50
     + 260 x(51)#51 + 407 x(52)#52 + 917 x(53)#53 + 712 x(54)#54 + 182 x(55)#55
     + 456 x(56)#56 + 767 x(57)#57 + 582 x(58)#58 + 475 x(59)#59 + 785 x(60)#60
     + 806 x(61)#61 + 346 x(62)#62 + 792 x(63)#63 + 919 x(64)#64 + 820 x(65)#65
     + 261 x(66)#66 + 966 x(67)#67 + 750 x(68)#68 + 655 x(69)#69 + 604 x(70)#70
     + 808 x(71)#71 + 4 x(72)#72 + 594 x(73)#73 + 717 x(74)#74 + 366 x(75)#75
     + 772 x(76)#76 + 195 x(77)#77 + 64 x(78)#78 + 310 x(79)#79 + 652 x(80)#80
     + 479 x(81)#81 + 326 x(82)#82 + 639 x(83)#83 + 742 x(84)#84 + 413 x(85)#85
     + 916 x(86)#86 + 726 x(87)#87 + 590 x(88)#88 + 805 x(89)#89 + 571 x(90)#90
     + 429 x(91)#91 + 720 x(92)#92 + 414 x(93)#93 + 470 x(94)#94 + 630 x(95)#95
     + 430 x(96)#96 + 306 x(97)#97 + 675 x(98)#98 + 827 x(99)#99 <= 41585
 c3: 220 x(0)#0 + 26 x(1)#1 + 365 x(2)#2 + 283 x(3)#3 + 509 x(4)#4 + 249 x(5)#5
     + 48 x(6)#6 + 459 x(7)#7 + 465 x(8)#8 + 306 x(9)#9 + 810 x(10)#10
     + 771 x(11)#11 + 21 x(12)#12 + 632 x(13)#13 + 497 x(14)#14 + 67 x(15)#15
     + 545 x(16)#16 + 721 x(17)#17 + 897 x(18)#18 + 817 x(19)#19 + 207 x(20)#20
     + 889 x(21)#21 + 946 x(22)#22 + 236 x(23)#23 + 481 x(24)#24 + 624 x(25)#25
     + 587 x(26)#26 + 38 x(27)#27 + 831 x(28)#28 + 740 x(29)#29 + 448 x(30)#30
     + 644 x(31)#31 + 963 x(32)#32 + 13 x(33)#33 + 204 x(34)#34 + 253 x(35)#35
     + 29 x(36)#36 + 322 x(37)#37 + 792 x(38)#38 + 739 x(39)#39 + 685 x(40)#40
     + 182 x(41)#41 + 391 x(42)#42 + 316 x(43)#43 + 276 x(44)#44 + 457 x(45)#45
     + 551 x(46)#46 + 800 x(47)#47 + 120 x(48)#48 + 688 x(49)#49 + 712 x(50)#50
     + 544 x(51)#51 + 740 x(52)#52 + 829 x(53)#53 + 121 x(54)#54 + 43 x(55)#55
     + 972 x(56)#56 + 44 x(57)#57 + 879 x(58)#58 + 583 x(59)#59 + 753 x(60)#60
     + 211 x(61)#61 + 797 x(62)#62 + 865 x(63)#63 + 826 x(64)#64 + 95 x(65)#65
     + 937 x(66)#66 + 574 x(67)#67 + 44 x(68)#68 + 830 x(69)#69 + 5 x(70)#70
     + 229 x(71)#71 + 494 x(72)#72 + 448 x(73)#73 + 368 x(74)#74 + 667 x(75)#75
     + 248 x(76)#76 + 172 x(77)#77 + 656 x(78)#78 + 476 x(79)#79 + 325 x(80)#80
     + 427 x(81)#81 + 473 x(82)#82 + 297 x(83)#83 + 948 x(84)#84 + 543 x(85)#85
     + 25 x(86)#86 + 751 x(87)#87 + 186 x(88)#88 + 850 x(89)#89 + 819 x(90)#90
     + 369 x(91)#91 + 765 x(92)#92 + 454 x(93)#93 + 144 x(94)#94 + 395 x(95)#95
     + 905 x(96)#96 + 249 x(97)#97 + 508 x(98)#98 + 406 x(99)#99 <= 36121
 c4: 435 x(0)#0 + 132 x(1)#1 + 950 x(2)#2 + 178 x(3)#3 + 743 x(4)#4
     + 991 x(5)#5 + 662 x(6)#6 + 614 x(7)#7 + 473 x(8)#8 + 566 x(9)#9
     + 491 x(10)#10 + 729 x(11)#11 + 565 x(12)#12 + 546 x(13)#13 + 420 x(14)#14
     + 774 x(15)#15 + 832 x(16)#16 + 600 x(17)#17 + 26 x(18)#18 + 185 x(19)#19
     + 827 x(20)#20 + 409 x(21)#21 + 775 x(22)#22 + 109 x(23)#23 + 602 x(24)#24
     + 391 x(25)#25 + 122 x(26)#26 + 56 x(27)#27 + 385 x(28)#28 + 482 x(29)#29
     + 221 x(30)#30 + 517 x(31)#31 + 249 x(32)#32 + 469 x(33)#33 + 333 x(34)#34
     + 216 x(35)#35 + 829 x(36)#36 + 964 x(37)#37 + 319 x(38)#38 + 23 x(39)#39
     + 120 x(40)#40 + 314 x(41)#41 + 714 x(42)#42 + 877 x(43)#43 + 266 x(44)#44
     + 916 x(45)#45 + 385 x(46)#46 + 278 x(47)#47 + 255 x(48)#48 + 679 x(49)#49
     + 236 x(50)#50 + 858 x(51)#51 + 685 x(52)#52 + 890 x(53)#53 + 939 x(54)#54
     + 585 x(55)#55 + 401 x(56)#56 + 980 x(57)#57 + 643 x(58)#58 + 898 x(59)#59
     + 465 x(60)#60 + 763 x(61)#61 + 668 x(62)#62 + 212 x(63)#63 + 703 x(64)#64
     + 497 x(65)#65 + 904 x(66)#66 + 969 x(67)#67 + 170 x(68)#68 + 551 x(69)#69
     + 444 x(70)#70 + 61 x(71)#71 + 60 x(72)#72 + 270 x(73)#73 + 419 x(74)#74
     + 394 x(75)#75 + 636 x(76)#76 + 674 x(77)#77 + 559 x(78)#78 + 881 x(79)#79
     + 17 x(80)#80 + 877 x(81)#81 + 975 x(82)#82 + 968 x(83)#83 + 107 x(84)#84
     + 957 x(85)#85 + 631 x(86)#86 + 351 x(87)#87 + 465 x(88)#88 + 133 x(89)#89
     + 291 x(90)#90 + 656 x(91)#91 + 129 x(92)#92 + 396 x(93)#93 + 873 x(94)#94
     + 402 x(95)#95 + 180 x(96)#96 + 216 x(97)#97 + 857 x(98)#98 + 516 x(99)#99
     <= 38570
 c5: 502 x(0)#0 + 128 x(1)#1 + 37 x(2)#2 + 969 x(3)#3 + 798 x(4)#4 + 867 x(5)#5
     + 448 x(6)#6 + 512 x(7)#7 + 201 x(8)#8 + 220 x(9)#9 + 728 x(10)#10
     + 32 x(11)#11 + 319 x(12)#12 + 634 x(13)#13 + 539 x(14)#14 + 941 x(15)#15
     + 450 x(16)#16 + 538 x(17)#17 + 995 x(18)#18 + 334 x(19)#19 + 266 x(20)#20
     + 875 x(21)#21 + 394 x(22)#22 + 987 x(23)#23 + 915 x(24)#24 + 109 x(25)#25
     + 916 x(26)#26 + 999 x(27)#27 + 465 x(28)#28 + 273 x(29)#29 + 358 x(30)#30
     + 857 x(31)#31 + 576 x(32)#32 + 406 x(33)#33 + 154 x(34)#34 + 825 x(35)#35
     + 237 x(36)#36 + 721 x(37)#37 + 383 x(38)#38 + 381 x(39)#39 + 508 x(40)#40
     + 913 x(41)#41 + 35 x(42)#42 + 713 x(43)#43 + 296 x(44)#44 + 806 x(45)#45
     + 736 x(46)#46 + 353 x(47)#47 + 861 x(48)#48 + 288 x(49)#49 + 535 x(50)#50
     + 766 x(51)#51 + 677 x(52)#52 + 878 x(53)#53 + 792 x(54)#54 + x(55)#55
     + 372 x(56)#56 + 197 x(57)#57 + 468 x(58)#58 + 59 x(59)#59 + 277 x(60)#60
     + 733 x(61)#61 + 552 x(62)#62 + 680 x(63)#63 + 928 x(64)#64 + 58 x(65)#65
     + 515 x(66)#66 + 15 x(67)#67 + 754 x(68)#68 + 791 x(69)#69 + 786 x(70)#70
     + 74 x(71)#71 + 651 x(72)#72 + 450 x(73)#73 + 215 x(74)#74 + 982 x(75)#75
     + 253 x(76)#76 + 128 x(77)#77 + 814 x(78)#78 + 538 x(79)#79 + 33 x(80)#80
     + 663 x(81)#81 + 883 x(82)#82 + 951 x(83)#83 + 274 x(84)#84 + 390 x(85)#85
     + 996 x(86)#86 + 804 x(87)#87 + 374 x(88)#88 + 453 x(89)#89 + 331 x(90)#90
     + 942 x(91)#91 + 200 x(92)#92 + 467 x(93)#93 + 560 x(94)#94 + 129 x(95)#95
     + 647 x(96)#96 + 19 x(97)#97 + 128 x(98)#98 + 762 x(99)#99 <= 38807
Bounds
 0 <= x(0)#0 <= 1
 0 <= x(1)#1 <= 1
 0 <= x(2)#2 <= 1
 0 <= x(3)#3 <= 1
 0 <= x(4)#4 <= 1
 0 <= x(5)#5 <= 1
 0 <= x(6)#6 <= 1
 0 <= x(7)#7 <= 1
 0 <= x(8)#8 <= 1
 0 <= x(9)#9 <= 1
 0 <= x(10)#10 <= 1
 0 <= x(11)#11 <= 1
 0 <= x(12)#12 <= 1
 0 <= x(13)#13 <= 1
 0 <= x(14)#14 <= 1
 0 <= x(15)#15 <= 1
 0 <= x(16)#16 <= 1
 0 <= x(17)#17 <= 1
 0 <= x(18)#18 <= 1
 0 <= x(19)#19 <= 1
 0 <= x(20)#20 <= 1
 0 <= x(21)#21 <= 1
 0 <= x(22)#22 <= 1
 0 <= x(23)#23 <= 1
 0 <= x(24)#24 <= 1
 0 <= x(25)#25 <= 1
 0 <= x(26)#26 <= 1
 0 <= x(27)#27 <= 1
 0 <= x(28)#28 <= 1
 0 <= x(29)#29 <= 1
 0 <= x(30)#30 <= 1
 0 <= x(31)#31 <= 1
 0 <= x(32)#32 <= 1
 0 <= x(33)#33 <= 1
 0 <= x(34)#34 <= 1
 0 <= x(35)#35 <= 1
 0 <= x(36)#36 <= 1
 0 <= x(37)#37 <= 1
 0 <= x(38)#38 <= 1
 0 <= x(39)#39 <= 1
 0 <= x(40)#40 <= 1
 0 <= x(41)#41 <= 1
 0 <= x(42)#42 <= 1
 0 <= x(43)#43 <= 1
 0 <= x(44)#44 <= 1
 0 <= x(45)#45 <= 1
 0 <= x(46)#46 <= 1
 0 <= x(47)#47 <= 1
 0 <= x(48)#48 <= 1
 0 <= x(49)#49 <= 1
 0 <= x(50)#50 <= 1
 0 <= x(51)#51 <= 1
 0 <= x(52)#52 <= 1
 0 <= x(53)#53 <= 1
 0 <= x(54)#54 <= 1
 0 <= x(55)#55 <= 1
 0 <= x(56)#56 <= 1
 0 <= x(57)#57 <= 1
 0 <= x(58)#58 <= 1
 0 <= x(59)#59 <= 1
 0 <= x(60)#60 <= 1
 0 <= x(61)#61 <= 1
 0 <= x(62)#62 <= 1
 0 <= x(63)#63 <= 1
 0 <= x(64)#64 <= 1
 0 <= x(65)#65 <= 1
 0 <= x(66)#66 <= 1
 0 <= x(67)#67 <= 1
 0 <= x(68)#68 <= 1
 0 <= x(69)#69 <= 1
 0 <= x(70)#70 <= 1
 0 <= x(71)#71 <= 1
 0 <= x(72)#72 <= 1
 0 <= x(73)#73 <= 1
 0 <= x(74)#74 <= 1
 0 <= x(75)#75 <= 1
 0 <= x(76)#76 <= 1
 0 <= x(77)#77 <= 1
 0 <= x(78)#78 <= 1
 0 <= x(79)#79 <= 1
 0 <= x(80)#80 <= 1
 0 <= x(81)#81 <= 1
 0 <= x(82)#82 <= 1
 0 <= x(83)#83 <= 1
 0 <= x(84)#84 <= 1
 0 <= x(85)#85 <= 1
 0 <= x(86)#86 <= 1
 0 <= x(87)#87 <= 1
 0 <= x(88)#88 <= 1
 0 <= x(89)#89 <= 1
 0 <= x(90)#90 <= 1
 0 <= x(91)#91 <= 1
 0 <= x(92)#92 <= 1
 0 <= x(93)#93 <= 1
 0 <= x(94)#94 <= 1
 0 <= x(95)#95 <= 1
 0 <= x(96)#96 <= 1
 0 <= x(97)#97 <= 1
 0 <= x(98)#98 <= 1
 0 <= x(99)#99 <= 1
Generals
 x(0)#0  x(1)#1  x(2)#2  x(3)#3  x(4)#4  x(5)#5  x(6)#6  x(7)#7  x(8)#8 
 x(9)#9  x(10)#10  x(11)#11  x(12)#12  x(13)#13  x(14)#14  x(15)#15  x(16)#16 
 x(17)#17  x(18)#18  x(19)#19  x(20)#20  x(21)#21  x(22)#22  x(23)#23 
 x(24)#24  x(25)#25  x(26)#26  x(27)#27  x(28)#28  x(29)#29  x(30)#30 
 x(31)#31  x(32)#32  x(33)#33  x(34)#34  x(35)#35  x(36)#36  x(37)#37 
 x(38)#38  x(39)#39  x(40)#40  x(41)#41  x(42)#42  x(43)#43  x(44)#44 
 x(45)#45  x(46)#46  x(47)#47  x(48)#48  x(49)#49  x(50)#50  x(51)#51 
 x(52)#52  x(53)#53  x(54)#54  x(55)#55  x(56)#56  x(57)#57  x(58)#58 
 x(59)#59  x(60)#60  x(61)#61  x(62)#62  x(63)#63  x(64)#64  x(65)#65 
 x(66)#66  x(67)#67  x(68)#68  x(69)#69  x(70)#70  x(71)#71  x(72)#72 
 x(73)#73  x(74)#74  x(75)#75  x(76)#76  x(77)#77  x(78)#78  x(79)#79 
 x(80)#80  x(81)#81  x(82)#82  x(83)#83  x(84)#84  x(85)#85  x(86)#86 
 x(87)#87  x(88)#88  x(89)#89  x(90)#90  x(91)#91  x(92)#92  x(93)#93 
 x(94)#94  x(95)#95  x(96)#96  x(97)#97  x(98)#98  x(99)#99 
End
